data/solutions/recovery/degenerate/intermediate/flexible/degenerate_intermediate_instance21/28.sol
Elapsed time: 100.11
Upper bound: 28483797.0
Planning weighted value: 1.0160409919e+11
C[0]=28483797.0
C[1]=28352311.0
C[2]=28324664.0
C[3]=28311836.0
C[4]=28285524.0
C[5]=28140472.0
C[6]=27971887.0
C[7]=27971081.0
C[8]=27954348.0
C[9]=27202626.0
C[10]=0.0
C[11]=0.0
y[0]=9
y[1]=4
y[2]=3
y[3]=9
y[4]=9
y[5]=5
y[6]=9
y[7]=4
y[8]=0
y[9]=8
y[10]=3
y[11]=5
y[12]=9
y[13]=9
y[14]=6
y[15]=5
y[16]=3
y[17]=9
y[18]=6
y[19]=6
y[20]=7
y[21]=7
y[22]=1
y[23]=0
y[24]=2
y[25]=7
y[26]=2
y[27]=6
y[28]=0
y[29]=2
y[30]=8
y[31]=7
y[32]=9
y[33]=5
y[34]=3
y[35]=0
y[36]=9
y[37]=9
y[38]=7
y[39]=3
y[40]=9
y[41]=9
y[42]=0
y[43]=6
y[44]=7
y[45]=4
y[46]=5
y[47]=0
y[48]=1
y[49]=3
y[50]=5
y[51]=9
y[52]=0
y[53]=4
y[54]=8
y[55]=9
y[56]=2
y[57]=1
y[58]=3
y[59]=5
y[60]=6
y[61]=8
y[62]=8
y[63]=1
y[64]=4
