data/solutions/recovery/degenerate/intermediate/flexible/degenerate_intermediate_instance21/28.log

Log started (V12.6.3.0) Sat Apr 21 12:30:08 2018

New value for default parallel thread count: 1

Problem '/tmp/tmpMP6fMt.pyomo.lp' read.
Read time = 0.01 sec. (0.58 ticks)

Problem name         : /tmp/tmpMP6fMt.pyomo.lp
Objective sense      : Minimize
Variables            :     794  [Nneg: 1,  Binary: 780,  General Integer: 13]
Objective nonzeros   :       1
Linear constraints   :     157  [Less: 77,  Equal: 80]
  Nonzeros           :   41016
  RHS nonzeros       :     131

Variables            : Min LB: 0.000000         Max UB: 1.000000       
Objective nonzeros   : Min   : 1.000000         Max   : 1.000000       
Linear constraints   :
  Nonzeros           : Min   : 1.000000         Max   : 8298339.       
  RHS nonzeros       : Min   : 1.000000         Max   : 7.000000       
Tried aggregator 2 times.
MIP Presolve eliminated 71 rows and 160 columns.
Aggregator did 3 substitutions.
Reduced MIP has 83 rows, 631 columns, and 1738 nonzeros.
Reduced MIP has 620 binaries, 11 generals, 0 SOSs, and 0 indicators.
Presolve time = 0.01 sec. (7.35 ticks)
Found incumbent of value 9.2920934e+07 after 0.01 sec. (8.45 ticks)
Probing time = 0.00 sec. (1.74 ticks)
Cover probing fixed 0 vars, tightened 21 bounds.
Tried aggregator 2 times.
Aggregator did 10 substitutions.
Reduced MIP has 73 rows, 621 columns, and 1718 nonzeros.
Reduced MIP has 620 binaries, 1 generals, 0 SOSs, and 0 indicators.
Presolve time = 0.00 sec. (1.61 ticks)
Probing time = 0.00 sec. (0.95 ticks)
Cover probing fixed 0 vars, tightened 6 bounds.
Clique table members: 62.
MIP emphasis: balance optimality and feasibility.
MIP search method: dynamic search.
Parallel mode: none, using 1 thread.
Root relaxation solution time = 0.00 sec. (0.63 ticks)

        Nodes                                         Cuts/
   Node  Left     Objective  IInf  Best Integer    Best Bound    ItCnt     Gap

*     0+    0                       9.29209e+07        0.0000           100.00%
      0     0   2.80999e+07    15   9.29209e+07   2.80999e+07       28   69.76%
*     0+    0                       3.31724e+07   2.80999e+07            15.29%
      0     0   2.80999e+07    22   3.31724e+07     Fract: 11       47   15.29%
*     0+    0                       3.22622e+07   2.80999e+07            12.90%
      0     0   2.80999e+07    22   3.22622e+07       Cuts: 7       73   12.90%
*     0+    0                       3.22326e+07   2.80999e+07            12.82%
*     0+    0                       3.11145e+07   2.80999e+07             9.69%
*     0+    0                       3.11054e+07   2.80999e+07             9.66%
      0     2   2.80999e+07    13   3.11054e+07   2.80999e+07       73    9.66%
Elapsed time = 0.04 sec. (39.03 ticks, tree = 0.01 MB, solutions = 5)
*    10+   10                       3.10452e+07   2.80999e+07             9.49%
*   320+  298                       3.10296e+07   2.80999e+07             9.44%
*   330+  308                       3.09689e+07   2.80999e+07             9.26%
*   430+  398                       3.09347e+07   2.80999e+07             9.16%
*   541+  502                       3.07319e+07   2.80999e+07             8.56%
*   542+  503                       3.06868e+07   2.80999e+07             8.43%
*   542+  503                       3.06860e+07   2.80999e+07             8.43%
*   542+  503                       3.06211e+07   2.80999e+07             8.23%
*   542+  503                       3.02869e+07   2.80999e+07             7.22%
*   542+  503                       3.00845e+07   2.80999e+07             6.60%
*   543+  336                       2.97653e+07   2.80999e+07             5.60%
*   543+  224                       2.94841e+07   2.80999e+07             4.69%
*   543+  149                       2.94382e+07   2.80999e+07             4.55%
*   543+   98                       2.94002e+07   2.80999e+07             4.42%
*   543+   65                       2.92020e+07   2.80999e+07             3.77%
    543    66   2.80999e+07    15   2.92020e+07   2.80999e+07     2590    3.77%
    544    67   2.80999e+07    15   2.92020e+07   2.80999e+07     2591    3.77%
    545    68   2.80999e+07    15   2.92020e+07   2.80999e+07     2596    3.77%
    546    68   2.80999e+07    16   2.92020e+07   2.80999e+07     2603    3.77%
    547    69   2.80999e+07    18   2.92020e+07   2.80999e+07     2610    3.77%
    548    70   2.80999e+07    15   2.92020e+07   2.80999e+07     2618    3.77%
    549    71   2.80999e+07    17   2.92020e+07   2.80999e+07     2629    3.77%
    550    71   2.80999e+07    15   2.92020e+07   2.80999e+07     2632    3.77%
    551    71   2.80999e+07    15   2.92020e+07   2.80999e+07     2634    3.77%
*   643+   67                       2.91583e+07   2.80999e+07             3.63%
*   743+   77                       2.91574e+07   2.80999e+07             3.63%
*   943+  169                       2.89376e+07   2.80999e+07             2.90%
*   943+  155                       2.87989e+07   2.80999e+07             2.43%
*   943+  154                       2.87403e+07   2.80999e+07             2.23%
   1243   307   2.80999e+07    16   2.87403e+07   2.80999e+07     5544    2.23%
Elapsed time = 0.91 sec. (1008.16 ticks, tree = 0.14 MB, solutions = 25)
   3447  1928   2.81660e+07    46   2.87403e+07   2.80999e+07    18586    2.23%
   3448  1929   2.81671e+07    44   2.87403e+07   2.80999e+07    18589    2.23%
   3449  1930   2.81796e+07    40   2.87403e+07   2.80999e+07    18599    2.23%
   3450  1931   2.81814e+07    41   2.87403e+07   2.80999e+07    18602    2.23%
   3451  1932   2.81878e+07    42   2.87403e+07   2.80999e+07    18608    2.23%
   3452  1933   2.81899e+07    41   2.87403e+07   2.80999e+07    18610    2.23%
   3453  1934   2.81991e+07    40   2.87403e+07   2.80999e+07    18616    2.23%
   3454  1935   2.81999e+07    41   2.87403e+07   2.80999e+07    18619    2.23%
   3455  1936   2.82000e+07    40   2.87403e+07   2.80999e+07    18620    2.23%
   3456  1937   2.82009e+07    41   2.87403e+07   2.80999e+07    18621    2.23%
Elapsed time = 1.64 sec. (1965.98 ticks, tree = 0.91 MB, solutions = 25)
   5640  3705   2.82188e+07    33   2.87403e+07   2.80999e+07    40612    2.23%
   5641  3706   2.82188e+07    32   2.87403e+07   2.80999e+07    40614    2.23%
   5642  3707   2.82202e+07    32   2.87403e+07   2.80999e+07    40618    2.23%
   5643  3708   2.82304e+07    36   2.87403e+07   2.80999e+07    40629    2.23%
   5644  3709   2.82306e+07    35   2.87403e+07   2.80999e+07    40630    2.23%
   5645  3710   2.82311e+07    27   2.87403e+07   2.80999e+07    40632    2.23%
   5646  3711   2.82441e+07    25   2.87403e+07   2.80999e+07    40635    2.23%
   5647  3712   2.82454e+07    25   2.87403e+07   2.80999e+07    40639    2.23%
   5648  3713   2.82489e+07    25   2.87403e+07   2.80999e+07    40643    2.23%
   5649  3714   2.82500e+07    32   2.87403e+07   2.80999e+07    40646    2.23%
Elapsed time = 2.32 sec. (2921.89 ticks, tree = 1.76 MB, solutions = 25)
   7657  5331        cutoff         2.87403e+07   2.80999e+07    63732    2.23%
   7658  5332   2.82004e+07    31   2.87403e+07   2.80999e+07    63739    2.23%
   7659  5333   2.82026e+07    32   2.87403e+07   2.80999e+07    63743    2.23%
   7660  5334   2.82026e+07    31   2.87403e+07   2.80999e+07    63744    2.23%
   7661  5335   2.82037e+07    31   2.87403e+07   2.80999e+07    63745    2.23%
   7662  5336   2.82058e+07    23   2.87403e+07   2.80999e+07    63751    2.23%
   7663  5337   2.82067e+07    35   2.87403e+07   2.80999e+07    63756    2.23%
   7664  5338   2.82073e+07    33   2.87403e+07   2.80999e+07    63759    2.23%
   7665  5339   2.82078e+07    35   2.87403e+07   2.80999e+07    63763    2.23%
   7666  5340   2.82162e+07    27   2.87403e+07   2.80999e+07    63772    2.23%
Elapsed time = 2.97 sec. (3877.70 ticks, tree = 2.61 MB, solutions = 25)
  10089  7371   2.80999e+07    25   2.87403e+07   2.80999e+07    88062    2.23%
  10090  7372   2.80999e+07    24   2.87403e+07   2.80999e+07    88075    2.23%
  10091  7373   2.80999e+07    29   2.87403e+07   2.80999e+07    88088    2.23%
  10092  7374   2.80999e+07    22   2.87403e+07   2.80999e+07    88187    2.23%
  10093  7375   2.80999e+07    32   2.87403e+07   2.80999e+07    88199    2.23%
  10094  7376   2.80999e+07    30   2.87403e+07   2.80999e+07    88202    2.23%
  10095  7377   2.80999e+07    36   2.87403e+07   2.80999e+07    88213    2.23%
  10096  7378   2.80999e+07    29   2.87403e+07   2.80999e+07    88268    2.23%
  10097  7379   2.81208e+07    32   2.87403e+07   2.80999e+07    88294    2.23%
  10098  7380   2.81220e+07    31   2.87403e+07   2.80999e+07    88302    2.23%
Elapsed time = 3.64 sec. (4839.80 ticks, tree = 3.55 MB, solutions = 25)
  11106  8151   2.81225e+07    18   2.87403e+07   2.80999e+07    99167    2.23%
  11107  8152   2.81225e+07    20   2.87403e+07   2.80999e+07    99170    2.23%
  11108  8153   2.81225e+07    18   2.87403e+07   2.80999e+07    99171    2.23%
  11109  8154   2.81225e+07    18   2.87403e+07   2.80999e+07    99173    2.23%
  11110  8155   2.81272e+07    19   2.87403e+07   2.80999e+07    99177    2.23%
  11111  8156   2.81297e+07    18   2.87403e+07   2.80999e+07    99178    2.23%
  11112  8157   2.81484e+07    17   2.87403e+07   2.80999e+07    99180    2.23%
  11113  8158   2.81491e+07    19   2.87403e+07   2.80999e+07    99181    2.23%
  11114  8159   2.81870e+07    24   2.87403e+07   2.80999e+07    99188    2.23%
  11115  8160   2.81878e+07    21   2.87403e+07   2.80999e+07    99192    2.23%
Elapsed time = 4.46 sec. (5794.83 ticks, tree = 3.91 MB, solutions = 25)
  13612 10184   2.86800e+07    12   2.87403e+07   2.80999e+07   122798    2.23%
  13613 10183        cutoff         2.87403e+07   2.80999e+07   122800    2.23%
  13614 10184   2.80999e+07    26   2.87403e+07   2.80999e+07   122844    2.23%
  13615 10185   2.80999e+07    23   2.87403e+07   2.80999e+07   122849    2.23%
  13616 10186   2.80999e+07    20   2.87403e+07   2.80999e+07   122851    2.23%
  13617 10187   2.80999e+07    19   2.87403e+07   2.80999e+07   122860    2.23%
  13618 10188   2.80999e+07    16   2.87403e+07   2.80999e+07   122861    2.23%
  13619 10189   2.80999e+07    18   2.87403e+07   2.80999e+07   122867    2.23%
  13620 10190   2.80999e+07    18   2.87403e+07   2.80999e+07   122868    2.23%
  13621 10191   2.80999e+07    24   2.87403e+07   2.80999e+07   122873    2.23%
Elapsed time = 5.14 sec. (6751.50 ticks, tree = 5.08 MB, solutions = 25)
  15831 12057   2.80999e+07    15   2.87403e+07   2.80999e+07   148473    2.23%
  15832 12058   2.80999e+07    16   2.87403e+07   2.80999e+07   148485    2.23%
  15833 12059   2.80999e+07    16   2.87403e+07   2.80999e+07   148498    2.23%
  15834 12060   2.80999e+07    16   2.87403e+07   2.80999e+07   148510    2.23%
  15835 12061   2.80999e+07    16   2.87403e+07   2.80999e+07   148528    2.23%
  15836 12062   2.80999e+07    16   2.87403e+07   2.80999e+07   148553    2.23%
  15837 12063   2.80999e+07    16   2.87403e+07   2.80999e+07   148554    2.23%
  15838 12064   2.80999e+07    18   2.87403e+07   2.80999e+07   148562    2.23%
  15839 12065   2.80999e+07    18   2.87403e+07   2.80999e+07   148589    2.23%
  15840 12065   2.83379e+07    17   2.87403e+07   2.80999e+07   148600    2.23%
Elapsed time = 5.79 sec. (7710.12 ticks, tree = 5.93 MB, solutions = 25)
  18182 13979   2.80999e+07    24   2.87403e+07   2.80999e+07   176565    2.23%
  18183 13980   2.80999e+07    26   2.87403e+07   2.80999e+07   176575    2.23%
  18184 13981   2.80999e+07    24   2.87403e+07   2.80999e+07   176588    2.23%
  18185 13982   2.80999e+07    22   2.87403e+07   2.80999e+07   176590    2.23%
  18186 13983   2.80999e+07    24   2.87403e+07   2.80999e+07   176616    2.23%
  18187 13984   2.80999e+07    24   2.87403e+07   2.80999e+07   176619    2.23%
  18188 13985   2.80999e+07    30   2.87403e+07   2.80999e+07   176687    2.23%
  18189 13986   2.80999e+07    26   2.87403e+07   2.80999e+07   176717    2.23%
  18190 13987   2.80999e+07    23   2.87403e+07   2.80999e+07   176723    2.23%
  18191 13988   2.80999e+07    25   2.87403e+07   2.80999e+07   176737    2.23%
Elapsed time = 6.46 sec. (8669.31 ticks, tree = 6.80 MB, solutions = 25)
  20376 15773        cutoff         2.87403e+07   2.80999e+07   200579    2.23%
  20377 15774   2.80999e+07    42   2.87403e+07   2.80999e+07   200649    2.23%
  20378 15775   2.80999e+07    39   2.87403e+07   2.80999e+07   200651    2.23%
  20379 15776   2.80999e+07    35   2.87403e+07   2.80999e+07   200658    2.23%
  20380 15777   2.80999e+07    38   2.87403e+07   2.80999e+07   200675    2.23%
  20381 15778   2.80999e+07    35   2.87403e+07   2.80999e+07   200677    2.23%
  20382 15779   2.80999e+07    31   2.87403e+07   2.80999e+07   200710    2.23%
  20383 15780   2.80999e+07    38   2.87403e+07   2.80999e+07   200750    2.23%
  20384 15781   2.80999e+07    37   2.87403e+07   2.80999e+07   200751    2.23%
  25116 19680   2.81958e+07    24   2.87403e+07   2.80999e+07   267791    2.23%
Elapsed time = 9.02 sec. (12484.29 ticks, tree = 9.93 MB, solutions = 25)
  30003 23867   2.84622e+07    25   2.87403e+07   2.80999e+07   352614    2.23%
  30004 23868   2.85044e+07    24   2.87403e+07   2.80999e+07   352625    2.23%
  30005 23869   2.85083e+07    24   2.87403e+07   2.80999e+07   352630    2.23%
  30006 23870   2.85084e+07    24   2.87403e+07   2.80999e+07   352631    2.23%
  30007 23870   2.85106e+07    22   2.87403e+07   2.80999e+07   352633    2.23%
  30008 23871   2.85166e+07    21   2.87403e+07   2.80999e+07   352636    2.23%
  30009 23871   2.85882e+07    16   2.87403e+07   2.80999e+07   352641    2.23%
  30010 23870        cutoff         2.87403e+07   2.80999e+07   352646    2.23%
  30011 23871   2.85057e+07    23   2.87403e+07   2.80999e+07   352931    2.23%
  30012 23872   2.85057e+07    21   2.87403e+07   2.80999e+07   352933    2.23%
Elapsed time = 11.53 sec. (16311.93 ticks, tree = 11.89 MB, solutions = 25)
  34543 27527   2.80999e+07    54   2.87403e+07   2.80999e+07   437382    2.23%
  34544 27528   2.80999e+07    53   2.87403e+07   2.80999e+07   437384    2.23%
  34545 27529   2.80999e+07    50   2.87403e+07   2.80999e+07   437397    2.23%
  34546 27530   2.80999e+07    48   2.87403e+07   2.80999e+07   437410    2.23%
  34547 27531   2.80999e+07    44   2.87403e+07   2.80999e+07   437439    2.23%
  34548 27532   2.80999e+07    44   2.87403e+07   2.80999e+07   437447    2.23%
  34549 27533   2.80999e+07    45   2.87403e+07   2.80999e+07   437465    2.23%
  34550 27534   2.80999e+07    42   2.87403e+07   2.80999e+07   437489    2.23%
  34551 27535   2.80999e+07    45   2.87403e+07   2.80999e+07   437492    2.23%
  34552 27536   2.80999e+07    44   2.87403e+07   2.80999e+07   437494    2.23%
Elapsed time = 14.07 sec. (20137.76 ticks, tree = 13.68 MB, solutions = 25)
* 39543+31750                       2.87214e+07   2.80999e+07             2.16%
* 39543+31735                       2.87192e+07   2.80999e+07             2.16%
* 39543+31336                       2.86635e+07   2.80999e+07             1.97%
* 39543+30090                       2.85208e+07   2.80999e+07             1.48%
  39543 30092   2.80999e+07    36   2.85208e+07   2.80999e+07   523008    1.48%
  39544 30093   2.80999e+07    37   2.85208e+07   2.80999e+07   523022    1.48%
  39545 30094   2.80999e+07    38   2.85208e+07   2.80999e+07   523060    1.48%
  39546 30095   2.80999e+07    37   2.85208e+07   2.80999e+07   523065    1.48%
  39547 30096   2.80999e+07    38   2.85208e+07   2.80999e+07   523083    1.48%
  39548 30097   2.80999e+07    40   2.85208e+07   2.80999e+07   523105    1.48%
  39549 30098   2.80999e+07    45   2.85208e+07   2.80999e+07   523203    1.48%
  39550 30099   2.81815e+07    38   2.85208e+07   2.80999e+07   523254    1.48%
  39551 30100   2.81839e+07    39   2.85208e+07   2.80999e+07   523257    1.48%
  39552 30101   2.81850e+07    39   2.85208e+07   2.80999e+07   523259    1.48%
Elapsed time = 16.70 sec. (24104.04 ticks, tree = 14.82 MB, solutions = 29)
  43649 33556   2.80999e+07    49   2.85208e+07   2.80999e+07   609105    1.48%
  43650 33557   2.80999e+07    48   2.85208e+07   2.80999e+07   609107    1.48%
  43651 33558   2.80999e+07    45   2.85208e+07   2.80999e+07   609221    1.48%
  43652 33559   2.80999e+07    48   2.85208e+07   2.80999e+07   609223    1.48%
  43653 33560   2.80999e+07    45   2.85208e+07   2.80999e+07   609228    1.48%
  43654 33561   2.80999e+07    44   2.85208e+07   2.80999e+07   609230    1.48%
  43655 33562   2.80999e+07    41   2.85208e+07   2.80999e+07   609249    1.48%
  43656 33563   2.80999e+07    42   2.85208e+07   2.80999e+07   609260    1.48%
  43657 33564   2.80999e+07    41   2.85208e+07   2.80999e+07   609359    1.48%
  43658 33564   2.80999e+07    45   2.85208e+07   2.80999e+07   609369    1.48%
Elapsed time = 19.24 sec. (27940.93 ticks, tree = 17.40 MB, solutions = 29)
  47791 37052   2.80999e+07    47   2.85208e+07   2.80999e+07   695226    1.48%
  47792 37053   2.80999e+07    45   2.85208e+07   2.80999e+07   695230    1.48%
  47793 37054   2.80999e+07    42   2.85208e+07   2.80999e+07   695238    1.48%
  47794 37055   2.80999e+07    42   2.85208e+07   2.80999e+07   695239    1.48%
  47795 37056   2.80999e+07    47   2.85208e+07   2.80999e+07   695247    1.48%
  47796 37057   2.80999e+07    45   2.85208e+07   2.80999e+07   695254    1.48%
  47797 37058   2.80999e+07    48   2.85208e+07   2.80999e+07   695265    1.48%
  47798 37059   2.80999e+07    49   2.85208e+07   2.80999e+07   695268    1.48%
  47799 37060   2.80999e+07    49   2.85208e+07   2.80999e+07   695269    1.48%
  47800 37061   2.80999e+07    47   2.85208e+07   2.80999e+07   695270    1.48%
Elapsed time = 21.72 sec. (31758.54 ticks, tree = 19.04 MB, solutions = 29)
  52512 40752   2.81093e+07    40   2.85208e+07   2.80999e+07   781293    1.48%
  52513 40753   2.81094e+07    43   2.85208e+07   2.80999e+07   781295    1.48%
  52514 40754   2.81148e+07    42   2.85208e+07   2.80999e+07   781301    1.48%
  52515 40755   2.81150e+07    40   2.85208e+07   2.80999e+07   781303    1.48%
  52516 40756   2.81185e+07    38   2.85208e+07   2.80999e+07   781307    1.48%
  52517 40757   2.81259e+07    38   2.85208e+07   2.80999e+07   781310    1.48%
  52518 40758   2.81260e+07    39   2.85208e+07   2.80999e+07   781311    1.48%
  52519 40759   2.81260e+07    38   2.85208e+07   2.80999e+07   781312    1.48%
  52520 40760   2.81820e+07    42   2.85208e+07   2.80999e+07   781338    1.48%
  52521 40761   2.81908e+07    41   2.85208e+07   2.80999e+07   781339    1.48%
Elapsed time = 24.51 sec. (35576.01 ticks, tree = 20.83 MB, solutions = 29)
  57512 45032   2.80999e+07    39   2.85208e+07   2.80999e+07   869254    1.48%
  57513 45033   2.80999e+07    33   2.85208e+07   2.80999e+07   869257    1.48%
  57514 45034   2.80999e+07    40   2.85208e+07   2.80999e+07   869357    1.48%
  57515 45035   2.80999e+07    29   2.85208e+07   2.80999e+07   869417    1.48%
  57516 45036   2.80999e+07    28   2.85208e+07   2.80999e+07   869421    1.48%
  57517 45037   2.80999e+07    27   2.85208e+07   2.80999e+07   869422    1.48%
  57518 45038   2.80999e+07    30   2.85208e+07   2.80999e+07   869442    1.48%
  57519 45039   2.80999e+07    25   2.85208e+07   2.80999e+07   869444    1.48%
  57520 45040   2.80999e+07    32   2.85208e+07   2.80999e+07   869451    1.48%
  57521 45041   2.80999e+07    34   2.85208e+07   2.80999e+07   869474    1.48%
Elapsed time = 27.03 sec. (39401.02 ticks, tree = 22.82 MB, solutions = 29)
  62319 49036   2.80999e+07    57   2.85208e+07   2.80999e+07   955000    1.48%
  62320 49037   2.80999e+07    53   2.85208e+07   2.80999e+07   955002    1.48%
  62321 49038   2.80999e+07    52   2.85208e+07   2.80999e+07   955008    1.48%
  62322 49039   2.80999e+07    51   2.85208e+07   2.80999e+07   955012    1.48%
  62323 49040   2.80999e+07    51   2.85208e+07   2.80999e+07   955031    1.48%
  62324 49041   2.80999e+07    50   2.85208e+07   2.80999e+07   955034    1.48%
  62325 49042   2.81253e+07    51   2.85208e+07   2.80999e+07   955063    1.48%
  62326 49043   2.81253e+07    51   2.85208e+07   2.80999e+07   955064    1.48%
  62327 49044   2.81255e+07    46   2.85208e+07   2.80999e+07   955066    1.48%
  62328 49045   2.81258e+07    48   2.85208e+07   2.80999e+07   955071    1.48%
Elapsed time = 29.53 sec. (43220.50 ticks, tree = 24.70 MB, solutions = 29)
  66895 52919   2.80999e+07    34   2.85208e+07   2.80999e+07  1044527    1.48%
  66896 52920   2.80999e+07    34   2.85208e+07   2.80999e+07  1044534    1.48%
  66897 52921   2.80999e+07    37   2.85208e+07   2.80999e+07  1044548    1.48%
  66898 52922   2.80999e+07    39   2.85208e+07   2.80999e+07  1044586    1.48%
  66899 52923   2.80999e+07    40   2.85208e+07   2.80999e+07  1044594    1.48%
  66900 52924   2.80999e+07    43   2.85208e+07   2.80999e+07  1044703    1.48%
  66901 52925   2.80999e+07    36   2.85208e+07   2.80999e+07  1044779    1.48%
  66902 52926   2.80999e+07    44   2.85208e+07   2.80999e+07  1044796    1.48%
  66903 52927   2.80999e+07    38   2.85208e+07   2.80999e+07  1044797    1.48%
  66904 52928   2.80999e+07    37   2.85208e+07   2.80999e+07  1044833    1.48%
Elapsed time = 32.08 sec. (47048.26 ticks, tree = 26.53 MB, solutions = 29)
  71743 56809   2.81116e+07    31   2.85208e+07   2.80999e+07  1131149    1.48%
  71744 56810   2.81120e+07    31   2.85208e+07   2.80999e+07  1131150    1.48%
  71745 56811   2.81615e+07    26   2.85208e+07   2.80999e+07  1131155    1.48%
  71746 56812   2.81618e+07    26   2.85208e+07   2.80999e+07  1131156    1.48%
  71747 56813   2.81619e+07    24   2.85208e+07   2.80999e+07  1131157    1.48%
  71748 56812        cutoff         2.85208e+07   2.80999e+07  1131160    1.48%
  71749 56813   2.81684e+07    25   2.85208e+07   2.80999e+07  1131163    1.48%
  71750 56814   2.81684e+07    25   2.85208e+07   2.80999e+07  1131164    1.48%
  71751 56814   2.81696e+07    23   2.85208e+07   2.80999e+07  1131167    1.48%
  71752 56815   2.81993e+07    24   2.85208e+07   2.80999e+07  1131171    1.48%
Elapsed time = 34.60 sec. (50870.25 ticks, tree = 28.39 MB, solutions = 29)
  76505 60861        cutoff         2.85208e+07   2.80999e+07  1209457    1.48%
  76506 60860        cutoff         2.85208e+07   2.80999e+07  1209561    1.48%
  76507 60861   2.80999e+07    41   2.85208e+07   2.80999e+07  1209758    1.48%
  76508 60862   2.80999e+07    41   2.85208e+07   2.80999e+07  1209762    1.48%
  76509 60863   2.80999e+07    43   2.85208e+07   2.80999e+07  1209764    1.48%
  76510 60864   2.80999e+07    42   2.85208e+07   2.80999e+07  1209765    1.48%
  76511 60865   2.80999e+07    41   2.85208e+07   2.80999e+07  1209769    1.48%
  76512 60866   2.80999e+07    41   2.85208e+07   2.80999e+07  1209771    1.48%
  76513 60867   2.80999e+07    40   2.85208e+07   2.80999e+07  1209772    1.48%
  76514 60868   2.80999e+07    33   2.85208e+07   2.80999e+07  1209806    1.48%
Elapsed time = 38.10 sec. (54699.52 ticks, tree = 30.28 MB, solutions = 29)
  80933 64534   2.80999e+07    35   2.85208e+07   2.80999e+07  1288551    1.48%
  80934 64535   2.80999e+07    33   2.85208e+07   2.80999e+07  1288562    1.48%
  80935 64536   2.80999e+07    37   2.85208e+07   2.80999e+07  1288597    1.48%
  80936 64537   2.80999e+07    34   2.85208e+07   2.80999e+07  1288599    1.48%
  80937 64538   2.80999e+07    33   2.85208e+07   2.80999e+07  1288605    1.48%
  80938 64539   2.80999e+07    36   2.85208e+07   2.80999e+07  1288638    1.48%
  80939 64540   2.80999e+07    35   2.85208e+07   2.80999e+07  1288649    1.48%
  80940 64541   2.80999e+07    34   2.85208e+07   2.80999e+07  1288661    1.48%
  80941 64542   2.80999e+07    34   2.85208e+07   2.80999e+07  1288668    1.48%
  80942 64543   2.80999e+07    44   2.85208e+07   2.80999e+07  1288774    1.48%
Elapsed time = 41.97 sec. (58523.41 ticks, tree = 32.02 MB, solutions = 29)
  85431 68334   2.80999e+07    38   2.85208e+07   2.80999e+07  1369658    1.48%
  85432 68335   2.80999e+07    37   2.85208e+07   2.80999e+07  1369660    1.48%
  85433 68336   2.80999e+07    47   2.85208e+07   2.80999e+07  1369774    1.48%
  85434 68337   2.80999e+07    47   2.85208e+07   2.80999e+07  1369777    1.48%
  85435 68338   2.80999e+07    42   2.85208e+07   2.80999e+07  1369792    1.48%
  85436 68339   2.80999e+07    41   2.85208e+07   2.80999e+07  1369797    1.48%
  85437 68340   2.80999e+07    40   2.85208e+07   2.80999e+07  1369800    1.48%
  85438 68341   2.80999e+07    38   2.85208e+07   2.80999e+07  1369802    1.48%
  85439 68342   2.80999e+07    45   2.85208e+07   2.80999e+07  1369822    1.48%
  85440 68343   2.80999e+07    47   2.85208e+07   2.80999e+07  1369832    1.48%
Elapsed time = 45.53 sec. (62346.12 ticks, tree = 35.72 MB, solutions = 29)
  90378 72490   2.80999e+07    37   2.85208e+07   2.80999e+07  1456434    1.48%
  90379 72491   2.80999e+07    37   2.85208e+07   2.80999e+07  1456439    1.48%
  90380 72492   2.80999e+07    37   2.85208e+07   2.80999e+07  1456440    1.48%
  90381 72493   2.80999e+07    46   2.85208e+07   2.80999e+07  1456453    1.48%
  90382 72494   2.80999e+07    43   2.85208e+07   2.80999e+07  1456457    1.48%
  90383 72495   2.80999e+07    43   2.85208e+07   2.80999e+07  1456459    1.48%
  90384 72496   2.80999e+07    36   2.85208e+07   2.80999e+07  1456467    1.48%
  90385 72497   2.80999e+07    34   2.85208e+07   2.80999e+07  1456482    1.48%
  90386 72498   2.80999e+07    34   2.85208e+07   2.80999e+07  1456483    1.48%
  90387 72499   2.80999e+07    46   2.85208e+07   2.80999e+07  1456501    1.48%
Elapsed time = 49.40 sec. (66164.77 ticks, tree = 37.70 MB, solutions = 29)
  94943 76237   2.80999e+07    50   2.85208e+07   2.80999e+07  1539959    1.48%
  94944 76238   2.80999e+07    49   2.85208e+07   2.80999e+07  1540027    1.48%
  94945 76239   2.80999e+07    45   2.85208e+07   2.80999e+07  1540039    1.48%
  94946 76240   2.80999e+07    45   2.85208e+07   2.80999e+07  1540040    1.48%
  94947 76241   2.80999e+07    44   2.85208e+07   2.80999e+07  1540041    1.48%
  94948 76242   2.80999e+07    44   2.85208e+07   2.80999e+07  1540042    1.48%
  94949 76243   2.80999e+07    43   2.85208e+07   2.80999e+07  1540060    1.48%
  94950 76244   2.80999e+07    47   2.85208e+07   2.80999e+07  1540084    1.48%
  94951 76245   2.80999e+07    41   2.85208e+07   2.80999e+07  1540093    1.48%
  94952 76246   2.80999e+07    42   2.85208e+07   2.80999e+07  1540094    1.48%
Elapsed time = 53.06 sec. (69987.80 ticks, tree = 39.49 MB, solutions = 29)
  99386 79852   2.80999e+07    40   2.85208e+07   2.80999e+07  1620039    1.48%
  99387 79853   2.80999e+07    35   2.85208e+07   2.80999e+07  1620041    1.48%
  99388 79854   2.80999e+07    40   2.85208e+07   2.80999e+07  1620134    1.48%
  99389 79855   2.80999e+07    41   2.85208e+07   2.80999e+07  1620139    1.48%
  99390 79856   2.80999e+07    39   2.85208e+07   2.80999e+07  1620180    1.48%
  99391 79857   2.80999e+07    37   2.85208e+07   2.80999e+07  1620211    1.48%
  99392 79858   2.80999e+07    40   2.85208e+07   2.80999e+07  1620258    1.48%
  99393 79859   2.80999e+07    36   2.85208e+07   2.80999e+07  1620287    1.48%
  99394 79860   2.80999e+07    36   2.85208e+07   2.80999e+07  1620355    1.48%
  99395 79861   2.80999e+07    37   2.85208e+07   2.80999e+07  1620453    1.48%
Elapsed time = 56.66 sec. (73815.91 ticks, tree = 41.20 MB, solutions = 29)
 104042 83775   2.80999e+07    45   2.85208e+07   2.80999e+07  1701667    1.48%
 104043 83776   2.80999e+07    46   2.85208e+07   2.80999e+07  1701680    1.48%
 104044 83777   2.80999e+07    47   2.85208e+07   2.80999e+07  1701686    1.48%
 104045 83778   2.80999e+07    43   2.85208e+07   2.80999e+07  1701688    1.48%
 104046 83779   2.80999e+07    44   2.85208e+07   2.80999e+07  1701692    1.48%
 104047 83780   2.80999e+07    45   2.85208e+07   2.80999e+07  1701706    1.48%
 104048 83781   2.80999e+07    46   2.85208e+07   2.80999e+07  1701724    1.48%
 104049 83782   2.80999e+07    47   2.85208e+07   2.80999e+07  1701729    1.48%
 104050 83783   2.80999e+07    45   2.85208e+07   2.80999e+07  1701733    1.48%
 104051 83784   2.80999e+07    42   2.85208e+07   2.80999e+07  1701742    1.48%
Elapsed time = 60.25 sec. (77635.99 ticks, tree = 43.04 MB, solutions = 29)
 108248 87322   2.80999e+07    45   2.85208e+07   2.80999e+07  1780957    1.48%
 108249 87323   2.80999e+07    37   2.85208e+07   2.80999e+07  1780969    1.48%
 108250 87324   2.81019e+07    40   2.85208e+07   2.80999e+07  1780980    1.48%
 108251 87325   2.81023e+07    42   2.85208e+07   2.80999e+07  1780982    1.48%
 108252 87326   2.81048e+07    43   2.85208e+07   2.80999e+07  1780991    1.48%
 108253 87327   2.81048e+07    41   2.85208e+07   2.80999e+07  1780992    1.48%
 108254 87328   2.81048e+07    41   2.85208e+07   2.80999e+07  1780993    1.48%
 108255 87329   2.81048e+07    40   2.85208e+07   2.80999e+07  1780994    1.48%
 108256 87330   2.81048e+07    40   2.85208e+07   2.80999e+07  1780995    1.48%
 108257 87331   2.81048e+07    41   2.85208e+07   2.80999e+07  1780997    1.48%
Elapsed time = 63.81 sec. (81453.93 ticks, tree = 44.69 MB, solutions = 29)
 112959 91171   2.80999e+07    31   2.85208e+07   2.80999e+07  1867309    1.48%
 112960 91172   2.80999e+07    28   2.85208e+07   2.80999e+07  1867325    1.48%
 112961 91173   2.80999e+07    30   2.85208e+07   2.80999e+07  1867327    1.48%
 112962 91174   2.80999e+07    28   2.85208e+07   2.80999e+07  1867328    1.48%
 112963 91175   2.80999e+07    27   2.85208e+07   2.80999e+07  1867341    1.48%
 112964 91176   2.80999e+07    28   2.85208e+07   2.80999e+07  1867346    1.48%
 112965 91177   2.80999e+07    30   2.85208e+07   2.80999e+07  1867348    1.48%
 112966 91178   2.80999e+07    30   2.85208e+07   2.80999e+07  1867372    1.48%
 112967 91179   2.80999e+07    31   2.85208e+07   2.80999e+07  1867380    1.48%
 112968 91180   2.80999e+07    25   2.85208e+07   2.80999e+07  1867384    1.48%
Elapsed time = 67.65 sec. (85273.94 ticks, tree = 46.52 MB, solutions = 29)
 117799 95128   2.80999e+07    50   2.85208e+07   2.80999e+07  1943710    1.48%
 117800 95129   2.80999e+07    50   2.85208e+07   2.80999e+07  1943739    1.48%
 117801 95130   2.80999e+07    53   2.85208e+07   2.80999e+07  1943881    1.48%
 117802 95131   2.80999e+07    45   2.85208e+07   2.80999e+07  1943889    1.48%
 117803 95132   2.80999e+07    43   2.85208e+07   2.80999e+07  1943959    1.48%
 117804 95133   2.80999e+07    38   2.85208e+07   2.80999e+07  1943976    1.48%
 117805 95134   2.80999e+07    37   2.85208e+07   2.80999e+07  1943979    1.48%
 117806 95135   2.80999e+07    37   2.85208e+07   2.80999e+07  1943990    1.48%
 117807 95136   2.80999e+07    39   2.85208e+07   2.80999e+07  1943995    1.48%
 117808 95137   2.80999e+07    39   2.85208e+07   2.80999e+07  1944000    1.48%
Elapsed time = 71.23 sec. (89100.81 ticks, tree = 48.40 MB, solutions = 29)
*121143+97201                       2.84907e+07   2.80999e+07             1.37%
*121143+97003                       2.84838e+07   2.80999e+07             1.35%
 122057 97687   2.80999e+07    43   2.84838e+07   2.80999e+07  2021631    1.35%
 122058 97688   2.80999e+07    42   2.84838e+07   2.80999e+07  2021632    1.35%
 122059 97689   2.80999e+07    41   2.84838e+07   2.80999e+07  2021633    1.35%
 122060 97690   2.80999e+07    38   2.84838e+07   2.80999e+07  2021634    1.35%
 122061 97691   2.80999e+07    34   2.84838e+07   2.80999e+07  2021635    1.35%
 122062 97692   2.80999e+07    43   2.84838e+07   2.80999e+07  2021662    1.35%
 122063 97693   2.80999e+07    41   2.84838e+07   2.80999e+07  2021665    1.35%
 122064 97694   2.80999e+07    41   2.84838e+07   2.80999e+07  2021666    1.35%
 122065 97695   2.80999e+07    40   2.84838e+07   2.80999e+07  2021668    1.35%
 122066 97696   2.80999e+07    34   2.84838e+07   2.80999e+07  2021689    1.35%
Elapsed time = 74.85 sec. (92920.87 ticks, tree = 49.56 MB, solutions = 31)
 126825 101497   2.80999e+07    44   2.84838e+07   2.80999e+07  2103474    1.35%
 126826 101496        cutoff         2.84838e+07   2.80999e+07  2103525    1.35%
 126827 101497   2.80999e+07    47   2.84838e+07   2.80999e+07  2103535    1.35%
 126828 101498   2.81053e+07    36   2.84838e+07   2.80999e+07  2103579    1.35%
 126829 101497    infeasible         2.84838e+07   2.80999e+07  2103608    1.35%
 126830 101498   2.81055e+07    37   2.84838e+07   2.80999e+07  2103611    1.35%
 126831 101499   2.81056e+07    36   2.84838e+07   2.80999e+07  2103613    1.35%
 126832 101500   2.81056e+07    36   2.84838e+07   2.80999e+07  2103614    1.35%
 126833 101501   2.81056e+07    36   2.84838e+07   2.80999e+07  2103615    1.35%
 126834 101502   2.81116e+07    36   2.84838e+07   2.80999e+07  2103628    1.35%
Elapsed time = 78.48 sec. (96742.32 ticks, tree = 51.41 MB, solutions = 31)
 131357 105197   2.80999e+07    28   2.84838e+07   2.80999e+07  2182410    1.35%
 131358 105198   2.80999e+07    25   2.84838e+07   2.80999e+07  2182414    1.35%
 131359 105199   2.80999e+07    24   2.84838e+07   2.80999e+07  2182421    1.35%
 131360 105200   2.80999e+07    26   2.84838e+07   2.80999e+07  2182425    1.35%
 131361 105201   2.80999e+07    27   2.84838e+07   2.80999e+07  2182429    1.35%
 131362 105202   2.80999e+07    29   2.84838e+07   2.80999e+07  2182440    1.35%
 131363 105203   2.80999e+07    29   2.84838e+07   2.80999e+07  2182442    1.35%
 131364 105204   2.80999e+07    28   2.84838e+07   2.80999e+07  2182447    1.35%
 131365 105205   2.80999e+07    26   2.84838e+07   2.80999e+07  2182448    1.35%
 131366 105206   2.80999e+07    28   2.84838e+07   2.80999e+07  2182453    1.35%
Elapsed time = 82.07 sec. (100561.00 ticks, tree = 53.15 MB, solutions = 31)
 135931 108839   2.80999e+07    56   2.84838e+07   2.80999e+07  2264921    1.35%
 135932 108840   2.80999e+07    43   2.84838e+07   2.80999e+07  2265008    1.35%
 135933 108841   2.80999e+07    44   2.84838e+07   2.80999e+07  2265012    1.35%
 135934 108842   2.80999e+07    42   2.84838e+07   2.80999e+07  2265016    1.35%
 135935 108843   2.80999e+07    44   2.84838e+07   2.80999e+07  2265036    1.35%
 135936 108844   2.80999e+07    43   2.84838e+07   2.80999e+07  2265037    1.35%
 135937 108845   2.80999e+07    44   2.84838e+07   2.80999e+07  2265044    1.35%
 135938 108846   2.80999e+07    47   2.84838e+07   2.80999e+07  2265057    1.35%
 135939 108847   2.80999e+07    46   2.84838e+07   2.80999e+07  2265060    1.35%
 135940 108848   2.80999e+07    46   2.84838e+07   2.80999e+07  2265061    1.35%
Elapsed time = 85.67 sec. (104389.95 ticks, tree = 54.86 MB, solutions = 31)
 141224 113148   2.80999e+07    25   2.84838e+07   2.80999e+07  2346430    1.35%
 141225 113149   2.80999e+07    24   2.84838e+07   2.80999e+07  2346469    1.35%
 141226 113150   2.80999e+07    25   2.84838e+07   2.80999e+07  2346522    1.35%
 141227 113151   2.80999e+07    23   2.84838e+07   2.80999e+07  2346524    1.35%
 141228 113152   2.80999e+07    33   2.84838e+07   2.80999e+07  2346558    1.35%
 141229 113153   2.80999e+07    33   2.84838e+07   2.80999e+07  2346560    1.35%
 141230 113154   2.80999e+07    32   2.84838e+07   2.80999e+07  2346599    1.35%
 141231 113155   2.81037e+07    31   2.84838e+07   2.80999e+07  2346609    1.35%
 141232 113156   2.81856e+07    38   2.84838e+07   2.80999e+07  2346625    1.35%
 141233 113157   2.81945e+07    37   2.84838e+07   2.80999e+07  2346631    1.35%
Elapsed time = 89.18 sec. (108212.25 ticks, tree = 56.91 MB, solutions = 31)
 145202 116227   2.80999e+07    34   2.84838e+07   2.80999e+07  2397403    1.35%
 145203 116228   2.80999e+07    32   2.84838e+07   2.80999e+07  2397404    1.35%
 145204 116229   2.80999e+07    37   2.84838e+07   2.80999e+07  2397446    1.35%
 145205 116230   2.80999e+07    32   2.84838e+07   2.80999e+07  2397451    1.35%
 145206 116231   2.80999e+07    34   2.84838e+07   2.80999e+07  2397459    1.35%
 145207 116232   2.80999e+07    32   2.84838e+07   2.80999e+07  2397460    1.35%
 145208 116233   2.80999e+07    27   2.84838e+07   2.80999e+07  2397499    1.35%
 145209 116234   2.80999e+07    24   2.84838e+07   2.80999e+07  2397508    1.35%
 145210 116235   2.80999e+07    28   2.84838e+07   2.80999e+07  2397518    1.35%
 145211 116236   2.80999e+07    28   2.84838e+07   2.80999e+07  2397602    1.35%
Elapsed time = 92.55 sec. (112036.91 ticks, tree = 58.40 MB, solutions = 31)
 147543 118026   2.80999e+07    48   2.84838e+07   2.80999e+07  2439694    1.35%
 147544 118027   2.80999e+07    43   2.84838e+07   2.80999e+07  2439705    1.35%
 147545 118028   2.80999e+07    43   2.84838e+07   2.80999e+07  2439710    1.35%
 147546 118029   2.80999e+07    48   2.84838e+07   2.80999e+07  2439716    1.35%
 147547 118030   2.80999e+07    41   2.84838e+07   2.80999e+07  2439722    1.35%
 147548 118031   2.80999e+07    44   2.84838e+07   2.80999e+07  2439750    1.35%
 147549 118032   2.80999e+07    43   2.84838e+07   2.80999e+07  2439762    1.35%
 147550 118033   2.80999e+07    42   2.84838e+07   2.80999e+07  2439767    1.35%
 147551 118034   2.80999e+07    42   2.84838e+07   2.80999e+07  2439769    1.35%
 147552 118035   2.80999e+07    42   2.84838e+07   2.80999e+07  2439770    1.35%
Elapsed time = 96.03 sec. (116040.33 ticks, tree = 59.26 MB, solutions = 31)
 151574 121246   2.80999e+07    28   2.84838e+07   2.80999e+07  2511268    1.35%
 151575 121247   2.80999e+07    30   2.84838e+07   2.80999e+07  2511275    1.35%
 151576 121248   2.80999e+07    28   2.84838e+07   2.80999e+07  2511283    1.35%
 151577 121249   2.81008e+07    40   2.84838e+07   2.80999e+07  2511308    1.35%
 151578 121250   2.81013e+07    40   2.84838e+07   2.80999e+07  2511309    1.35%
 151579 121251   2.81015e+07    40   2.84838e+07   2.80999e+07  2511310    1.35%
 151580 121252   2.81017e+07    39   2.84838e+07   2.80999e+07  2511311    1.35%
 151581 121253   2.81023e+07    39   2.84838e+07   2.80999e+07  2511312    1.35%
 151582 121254   2.81027e+07    39   2.84838e+07   2.80999e+07  2511315    1.35%
 151583 121255   2.81044e+07    38   2.84838e+07   2.80999e+07  2511321    1.35%
Elapsed time = 99.62 sec. (119859.57 ticks, tree = 60.77 MB, solutions = 31)

Cover cuts applied:  348
Mixed integer rounding cuts applied:  11
Gomory fractional cuts applied:  10

Root node processing (before b&c):
  Real time             =    0.04 sec. (39.15 ticks)
Sequential b&c:
  Real time             =   99.96 sec. (120242.84 ticks)
                          ------------
Total (root+branch&cut) =  100.00 sec. (120281.99 ticks)

Solution pool: 31 solutions saved.

MIP - Time limit exceeded, integer feasible:  Objective =  2.8483797000e+07
Current MIP best bound =  2.8099855000e+07 (gap = 383942, 1.35%)
Solution time =  100.00 sec.  Iterations = 2520404  Nodes = 152215 (121737)
Deterministic time = 120281.99 ticks  (1202.82 ticks/sec)


Incumbent solution written to file '/tmp/tmpxo0Y3U.cplex.sol'.
